**** Solver Output:

Optimize a model with 2 rows, 5 columns and 8 nonzeros
Coefficient statistics:
  Matrix range    [1e+00, 3e+00]
  Objective range [1e+01, 3e+01]
  Bounds range    [0e+00, 0e+00]
  RHS range       [1e+01, 2e+01]
Presolve removed 0 rows and 3 columns
Presolve time: 0.00s
Presolved: 2 rows, 2 columns, 4 nonzeros

Iteration    Objective       Primal Inf.    Dual Inf.      Time
       0    0.0000000e+00   1.650000e+01   0.000000e+00      0s
       2    1.3100000e+02   0.000000e+00   0.000000e+00      0s

Solved in 2 iterations and 0.00 seconds
Optimal objective  1.310000000e+02

**** Diet Program Output:

Objective Value = 131
food.1 = 0, reduced cost = 11.3333333333333
food.2 = 0, reduced cost = 6.66666666666667
food.3 = 0, reduced cost = 11.3333333333333
food.4 = 1, reduced cost = 0
food.5 = 10, reduced cost = 0
nutrient.iron, slack = 0, pi = 4.33333333333333
nutrient.calcium, slack = 0, pi = 3.33333333333333
Press any key to continue . . .